 H  O                                   
   1.00000000000000     
     8.0000000000000000    0.0000000000000000    0.0000000000000000
     0.0000000000000000    8.0000000000000000    0.0000000000000000
     0.0000000000000000    0.0000000000000000    8.0000000000000000
   H    O 
     2     1
Direct
  0.5000000000000000  0.5951148941688036  0.4630994946016866
  0.5000000000000000  0.4048851058311964  0.4630994946016866
  0.5000000000000000  0.5000000000000000  0.5365316982966256
 
  0.00000000E+00  0.00000000E+00  0.00000000E+00
  0.00000000E+00  0.00000000E+00  0.00000000E+00
  0.00000000E+00  0.00000000E+00  0.00000000E+00
