 H  O 
 1.0000000000000000
     8.0000000000000000    0.0000000000000000    0.0000000000000000
     0.0000000000000000    8.0000000000000000    0.0000000000000000
     0.0000000000000000    0.0000000000000000    8.0000000000000000
   2   1
Cartesian
  4.0000000000000000  4.7632390000000004  3.7018455000000001
  4.0000000000000000  3.2367610000000000  3.7018455000000001
  4.0000000000000000  4.0000000000000000  4.2981544999999999
